nohup: les entrées sont ignorées
./result/saved_models/regression/trained_params_mean_setcover-independentset-combinatorialauction_asymmetric_firstsol_k_prime_epoch163.pth
./result/saved_models/rl/reinforce/setcovering/checkpoint_trained_reward3_simplepolicy_rl4lb_reinforce_trainset_setcovering-small_lr0.01_epochs7.pth
The frequency of calling LB primal heuristic within SCIP BB tree is :  0
miplib_39binary-small
rootsol
./result/generated_instances/miplib_39binary/-small/rootsol/scip/heuristic_mode/lb-from-rootsol-t_total600s-t_node2s-small_lb_k0_regression_rl_beforenode_freq_0/seed0/
seed: 0
cpu
Load test dataset
get the DataLoader
instance:  0
create a new SCIP model
original problem has 3648 variables (192 bin, 0 int, 0 impl, 3456 cont) and 3312 constraints
The initial incumbent of miplib_39binary-0_transformed_a1c1s1 is successfully added to MIP model
miplib_39binary-0_transformed_a1c1s1
N of variables: 3648
N of binary vars: 192
N of constraints: 3312
Initial obj of MIP: 21029.389
call and execute heuristic search for the given instance
copy the instance for the heuristic subproblem
The freescip attribute is  True
call Ecole to transfer the SCIP model to an Ecole instance
get the feature observations
feature observation from ecole environment is received!
* Model status: unknown
* Model status: nodelimit
* Solve stage: 9
* LP status: 1
* number of sol :  1
GNN prediction:  5.6930170103441924e-05
GNN k_0:  1.0
LB heuristic is starting..
LB heuristic starts at 0.025567 s
No. of LB call:  1
LB initial objective: 21029.389
The init sol of original MIP is feasible
LB round: 1 Solving time: 2.0009 Best Obj: 19734.9740 n_sols_subMIP: 100 K: 10 t_node: 2.0 self.div: 0 LB Status: timelimit
False
prepare the 2nd LB iteration
start copying solution of subMIP to MIP
check feasibility
try to initialize a new solution
a new solution is initialized!
/local_workspace/liudefen/projects/ML4LB/models_rl.py:64: UserWarning: Implicit dimension choice for log_softmax has been deprecated. Change the call to include dim=X as an argument.
  probs = F.log_softmax(preds)
LB round: 2 Solving time: 4.0017 Best Obj: 19616.5912 n_sols_subMIP: 34 K: 10 t_node: 2.0 self.div: 0 LB Status: timelimit
start copying solution of subMIP to MIP
check feasibility
try to initialize a new solution
a new solution is initialized!
LB round: 3 Solving time: 6.0020 Best Obj: 18819.2677 n_sols_subMIP: 40 K: 10 t_node: 2.0 self.div: 0 LB Status: timelimit
start copying solution of subMIP to MIP
check feasibility
try to initialize a new solution
a new solution is initialized!
LB round: 4 Solving time: 8.0024 Best Obj: 17667.3722 n_sols_subMIP: 37 K: 10 t_node: 2.0 self.div: 0 LB Status: timelimit
start copying solution of subMIP to MIP
check feasibility
try to initialize a new solution
a new solution is initialized!
LB round: 5 Solving time: 10.0024 Best Obj: 17290.0739 n_sols_subMIP: 12 K: 15 t_node: 2.0 self.div: 0 LB Status: timelimit
start copying solution of subMIP to MIP
check feasibility
try to initialize a new solution
a new solution is initialized!
LB round: 6 Solving time: 12.0026 Best Obj: 16540.0739 n_sols_subMIP: 3 K: 10 t_node: 2.0 self.div: 0 LB Status: timelimit
start copying solution of subMIP to MIP
check feasibility
try to initialize a new solution
a new solution is initialized!
LB round: 7 Solving time: 14.0032 Best Obj: 16540.0739 n_sols_subMIP: 4 K: 10 t_node: 2.0 self.div: 0 LB Status: timelimit
LB round: 8 Solving time: 16.0034 Best Obj: 16540.0739 n_sols_subMIP: 5 K: 15 t_node: 2.0 self.div: 0 LB Status: timelimit
K_final: 15 div_final: 0
LB heuristic finishes at 16.27744 s
LB final objective: 16540.073874999995
LB heurisitc succeeds, finds an improving solution
